
-3.38
-3.32
-3.28
-3.28
-3.26
-3.22
-3.22
-3.16
-3.16
-3.14
-3.12
-3.1
-3.1
-3.08
-3.08
-3.06
-3.06
-3.04
-3.04
-3.04
-3.04
-3.04
-3.04
-3.04
-3.04
-3.04
-3.04
-3.04
-3.04
-3.04
-3.04
-3.04
-3.04
-3.04
-3.04
-3.04